; CASCADE-V attribution fairness proof certificate
; receipt_id: output_029
; n_sources: 67

(set-logic QF_LRA)

(declare-const w_0 Real)
(declare-const w_1 Real)
(declare-const w_2 Real)
(declare-const w_3 Real)
(declare-const w_4 Real)
(declare-const w_5 Real)
(declare-const w_6 Real)
(declare-const w_7 Real)
(declare-const w_8 Real)
(declare-const w_9 Real)
(declare-const w_10 Real)
(declare-const w_11 Real)
(declare-const w_12 Real)
(declare-const w_13 Real)
(declare-const w_14 Real)
(declare-const w_15 Real)
(declare-const w_16 Real)
(declare-const w_17 Real)
(declare-const w_18 Real)
(declare-const w_19 Real)
(declare-const w_20 Real)
(declare-const w_21 Real)
(declare-const w_22 Real)
(declare-const w_23 Real)
(declare-const w_24 Real)
(declare-const w_25 Real)
(declare-const w_26 Real)
(declare-const w_27 Real)
(declare-const w_28 Real)
(declare-const w_29 Real)
(declare-const w_30 Real)
(declare-const w_31 Real)
(declare-const w_32 Real)
(declare-const w_33 Real)
(declare-const w_34 Real)
(declare-const w_35 Real)
(declare-const w_36 Real)
(declare-const w_37 Real)
(declare-const w_38 Real)
(declare-const w_39 Real)
(declare-const w_40 Real)
(declare-const w_41 Real)
(declare-const w_42 Real)
(declare-const w_43 Real)
(declare-const w_44 Real)
(declare-const w_45 Real)
(declare-const w_46 Real)
(declare-const w_47 Real)
(declare-const w_48 Real)
(declare-const w_49 Real)
(declare-const w_50 Real)
(declare-const w_51 Real)
(declare-const w_52 Real)
(declare-const w_53 Real)
(declare-const w_54 Real)
(declare-const w_55 Real)
(declare-const w_56 Real)
(declare-const w_57 Real)
(declare-const w_58 Real)
(declare-const w_59 Real)
(declare-const w_60 Real)
(declare-const w_61 Real)
(declare-const w_62 Real)
(declare-const w_63 Real)
(declare-const w_64 Real)
(declare-const w_65 Real)
(declare-const w_66 Real)

; --- weight values ---
(assert (= w_0 0.0000000000))
(assert (= w_1 0.0000000000))
(assert (= w_2 0.0000000000))
(assert (= w_3 0.0000000000))
(assert (= w_4 0.0000000000))
(assert (= w_5 0.0000000000))
(assert (= w_6 0.0000000000))
(assert (= w_7 0.0000000000))
(assert (= w_8 0.0000000000))
(assert (= w_9 0.0000000000))
(assert (= w_10 0.0094696516))
(assert (= w_11 0.0770082976))
(assert (= w_12 0.0000000000))
(assert (= w_13 0.0000000000))
(assert (= w_14 0.0094382841))
(assert (= w_15 0.0094430968))
(assert (= w_16 0.0094525028))
(assert (= w_17 0.0094553239))
(assert (= w_18 0.0699527040))
(assert (= w_19 0.0000000000))
(assert (= w_20 0.0000000000))
(assert (= w_21 0.0000000000))
(assert (= w_22 0.0000000000))
(assert (= w_23 0.0000000000))
(assert (= w_24 0.0094508350))
(assert (= w_25 0.0094460635))
(assert (= w_26 0.0000000000))
(assert (= w_27 0.0000000000))
(assert (= w_28 0.1253478462))
(assert (= w_29 0.0000000000))
(assert (= w_30 0.0102618482))
(assert (= w_31 0.0000000000))
(assert (= w_32 0.0000000000))
(assert (= w_33 0.0826286211))
(assert (= w_34 0.0000000000))
(assert (= w_35 0.0000000000))
(assert (= w_36 0.0776878968))
(assert (= w_37 0.0782151908))
(assert (= w_38 0.0000000000))
(assert (= w_39 0.0844029962))
(assert (= w_40 0.0000000000))
(assert (= w_41 0.0769804248))
(assert (= w_42 0.0739018213))
(assert (= w_43 0.0739619371))
(assert (= w_44 0.0929643622))
(assert (= w_45 0.0000000000))
(assert (= w_46 0.0000000000))
(assert (= w_47 0.0000000000))
(assert (= w_48 0.0000000000))
(assert (= w_49 0.0000000000))
(assert (= w_50 0.0000000000))
(assert (= w_51 0.0000000000))
(assert (= w_52 0.0000000000))
(assert (= w_53 0.0105302959))
(assert (= w_54 0.0000000000))
(assert (= w_55 0.0000000000))
(assert (= w_56 0.0000000000))
(assert (= w_57 0.0000000000))
(assert (= w_58 0.0000000000))
(assert (= w_59 0.0000000000))
(assert (= w_60 0.0000000000))
(assert (= w_61 0.0000000000))
(assert (= w_62 0.0000000000))
(assert (= w_63 0.0000000000))
(assert (= w_64 0.0000000000))
(assert (= w_65 0.0000000000))
(assert (= w_66 0.0000000000))

; --- efficiency: sum(weights) ≈ 1.000000 ---
(assert (<= (- (+ w_0 w_1 w_2 w_3 w_4 w_5 w_6 w_7 w_8 w_9 w_10 w_11 w_12 w_13 w_14 w_15 w_16 w_17 w_18 w_19 w_20 w_21 w_22 w_23 w_24 w_25 w_26 w_27 w_28 w_29 w_30 w_31 w_32 w_33 w_34 w_35 w_36 w_37 w_38 w_39 w_40 w_41 w_42 w_43 w_44 w_45 w_46 w_47 w_48 w_49 w_50 w_51 w_52 w_53 w_54 w_55 w_56 w_57 w_58 w_59 w_60 w_61 w_62 w_63 w_64 w_65 w_66) 1.0000000000) 0.001))
(assert (>= (- (+ w_0 w_1 w_2 w_3 w_4 w_5 w_6 w_7 w_8 w_9 w_10 w_11 w_12 w_13 w_14 w_15 w_16 w_17 w_18 w_19 w_20 w_21 w_22 w_23 w_24 w_25 w_26 w_27 w_28 w_29 w_30 w_31 w_32 w_33 w_34 w_35 w_36 w_37 w_38 w_39 w_40 w_41 w_42 w_43 w_44 w_45 w_46 w_47 w_48 w_49 w_50 w_51 w_52 w_53 w_54 w_55 w_56 w_57 w_58 w_59 w_60 w_61 w_62 w_63 w_64 w_65 w_66) 1.0000000000) (- 0.001)))

; --- symmetry: similar sources have equal weights ---
(assert (<= (- w_0 w_1) 0.001))
(assert (>= (- w_0 w_1) (- 0.001)))
(assert (<= (- w_0 w_2) 0.001))
(assert (>= (- w_0 w_2) (- 0.001)))
(assert (<= (- w_0 w_4) 0.001))
(assert (>= (- w_0 w_4) (- 0.001)))
(assert (<= (- w_0 w_7) 0.001))
(assert (>= (- w_0 w_7) (- 0.001)))
(assert (<= (- w_0 w_8) 0.001))
(assert (>= (- w_0 w_8) (- 0.001)))
(assert (<= (- w_0 w_9) 0.001))
(assert (>= (- w_0 w_9) (- 0.001)))
(assert (<= (- w_1 w_2) 0.001))
(assert (>= (- w_1 w_2) (- 0.001)))
(assert (<= (- w_1 w_4) 0.001))
(assert (>= (- w_1 w_4) (- 0.001)))
(assert (<= (- w_1 w_7) 0.001))
(assert (>= (- w_1 w_7) (- 0.001)))
(assert (<= (- w_1 w_8) 0.001))
(assert (>= (- w_1 w_8) (- 0.001)))
(assert (<= (- w_1 w_9) 0.001))
(assert (>= (- w_1 w_9) (- 0.001)))
(assert (<= (- w_2 w_4) 0.001))
(assert (>= (- w_2 w_4) (- 0.001)))
(assert (<= (- w_2 w_7) 0.001))
(assert (>= (- w_2 w_7) (- 0.001)))
(assert (<= (- w_2 w_8) 0.001))
(assert (>= (- w_2 w_8) (- 0.001)))
(assert (<= (- w_2 w_9) 0.001))
(assert (>= (- w_2 w_9) (- 0.001)))
(assert (<= (- w_3 w_5) 0.001))
(assert (>= (- w_3 w_5) (- 0.001)))
(assert (<= (- w_3 w_6) 0.001))
(assert (>= (- w_3 w_6) (- 0.001)))
(assert (<= (- w_4 w_7) 0.001))
(assert (>= (- w_4 w_7) (- 0.001)))
(assert (<= (- w_4 w_8) 0.001))
(assert (>= (- w_4 w_8) (- 0.001)))
(assert (<= (- w_4 w_9) 0.001))
(assert (>= (- w_4 w_9) (- 0.001)))
(assert (<= (- w_5 w_6) 0.001))
(assert (>= (- w_5 w_6) (- 0.001)))
(assert (<= (- w_7 w_8) 0.001))
(assert (>= (- w_7 w_8) (- 0.001)))
(assert (<= (- w_7 w_9) 0.001))
(assert (>= (- w_7 w_9) (- 0.001)))
(assert (<= (- w_8 w_9) 0.001))
(assert (>= (- w_8 w_9) (- 0.001)))
(assert (<= (- w_10 w_14) 0.001))
(assert (>= (- w_10 w_14) (- 0.001)))
(assert (<= (- w_10 w_15) 0.001))
(assert (>= (- w_10 w_15) (- 0.001)))
(assert (<= (- w_10 w_16) 0.001))
(assert (>= (- w_10 w_16) (- 0.001)))
(assert (<= (- w_10 w_17) 0.001))
(assert (>= (- w_10 w_17) (- 0.001)))
(assert (<= (- w_10 w_24) 0.001))
(assert (>= (- w_10 w_24) (- 0.001)))
(assert (<= (- w_10 w_25) 0.001))
(assert (>= (- w_10 w_25) (- 0.001)))
(assert (<= (- w_11 w_12) 0.001))
(assert (>= (- w_11 w_12) (- 0.001)))
(assert (<= (- w_11 w_13) 0.001))
(assert (>= (- w_11 w_13) (- 0.001)))
(assert (<= (- w_11 w_18) 0.001))
(assert (>= (- w_11 w_18) (- 0.001)))
(assert (<= (- w_11 w_19) 0.001))
(assert (>= (- w_11 w_19) (- 0.001)))
(assert (<= (- w_11 w_20) 0.001))
(assert (>= (- w_11 w_20) (- 0.001)))
(assert (<= (- w_11 w_21) 0.001))
(assert (>= (- w_11 w_21) (- 0.001)))
(assert (<= (- w_11 w_22) 0.001))
(assert (>= (- w_11 w_22) (- 0.001)))
(assert (<= (- w_11 w_23) 0.001))
(assert (>= (- w_11 w_23) (- 0.001)))
(assert (<= (- w_11 w_26) 0.001))
(assert (>= (- w_11 w_26) (- 0.001)))
(assert (<= (- w_12 w_13) 0.001))
(assert (>= (- w_12 w_13) (- 0.001)))
(assert (<= (- w_12 w_18) 0.001))
(assert (>= (- w_12 w_18) (- 0.001)))
(assert (<= (- w_12 w_19) 0.001))
(assert (>= (- w_12 w_19) (- 0.001)))
(assert (<= (- w_12 w_20) 0.001))
(assert (>= (- w_12 w_20) (- 0.001)))
(assert (<= (- w_12 w_21) 0.001))
(assert (>= (- w_12 w_21) (- 0.001)))
(assert (<= (- w_12 w_22) 0.001))
(assert (>= (- w_12 w_22) (- 0.001)))
(assert (<= (- w_12 w_23) 0.001))
(assert (>= (- w_12 w_23) (- 0.001)))
(assert (<= (- w_12 w_26) 0.001))
(assert (>= (- w_12 w_26) (- 0.001)))
(assert (<= (- w_13 w_18) 0.001))
(assert (>= (- w_13 w_18) (- 0.001)))
(assert (<= (- w_13 w_19) 0.001))
(assert (>= (- w_13 w_19) (- 0.001)))
(assert (<= (- w_13 w_20) 0.001))
(assert (>= (- w_13 w_20) (- 0.001)))
(assert (<= (- w_13 w_21) 0.001))
(assert (>= (- w_13 w_21) (- 0.001)))
(assert (<= (- w_13 w_22) 0.001))
(assert (>= (- w_13 w_22) (- 0.001)))
(assert (<= (- w_13 w_23) 0.001))
(assert (>= (- w_13 w_23) (- 0.001)))
(assert (<= (- w_13 w_26) 0.001))
(assert (>= (- w_13 w_26) (- 0.001)))
(assert (<= (- w_14 w_15) 0.001))
(assert (>= (- w_14 w_15) (- 0.001)))
(assert (<= (- w_14 w_16) 0.001))
(assert (>= (- w_14 w_16) (- 0.001)))
(assert (<= (- w_14 w_17) 0.001))
(assert (>= (- w_14 w_17) (- 0.001)))
(assert (<= (- w_14 w_24) 0.001))
(assert (>= (- w_14 w_24) (- 0.001)))
(assert (<= (- w_14 w_25) 0.001))
(assert (>= (- w_14 w_25) (- 0.001)))
(assert (<= (- w_15 w_16) 0.001))
(assert (>= (- w_15 w_16) (- 0.001)))
(assert (<= (- w_15 w_17) 0.001))
(assert (>= (- w_15 w_17) (- 0.001)))
(assert (<= (- w_15 w_24) 0.001))
(assert (>= (- w_15 w_24) (- 0.001)))
(assert (<= (- w_15 w_25) 0.001))
(assert (>= (- w_15 w_25) (- 0.001)))
(assert (<= (- w_16 w_17) 0.001))
(assert (>= (- w_16 w_17) (- 0.001)))
(assert (<= (- w_16 w_24) 0.001))
(assert (>= (- w_16 w_24) (- 0.001)))
(assert (<= (- w_16 w_25) 0.001))
(assert (>= (- w_16 w_25) (- 0.001)))
(assert (<= (- w_17 w_24) 0.001))
(assert (>= (- w_17 w_24) (- 0.001)))
(assert (<= (- w_17 w_25) 0.001))
(assert (>= (- w_17 w_25) (- 0.001)))
(assert (<= (- w_18 w_19) 0.001))
(assert (>= (- w_18 w_19) (- 0.001)))
(assert (<= (- w_18 w_20) 0.001))
(assert (>= (- w_18 w_20) (- 0.001)))
(assert (<= (- w_18 w_21) 0.001))
(assert (>= (- w_18 w_21) (- 0.001)))
(assert (<= (- w_18 w_22) 0.001))
(assert (>= (- w_18 w_22) (- 0.001)))
(assert (<= (- w_18 w_23) 0.001))
(assert (>= (- w_18 w_23) (- 0.001)))
(assert (<= (- w_18 w_26) 0.001))
(assert (>= (- w_18 w_26) (- 0.001)))
(assert (<= (- w_19 w_20) 0.001))
(assert (>= (- w_19 w_20) (- 0.001)))
(assert (<= (- w_19 w_21) 0.001))
(assert (>= (- w_19 w_21) (- 0.001)))
(assert (<= (- w_19 w_22) 0.001))
(assert (>= (- w_19 w_22) (- 0.001)))
(assert (<= (- w_19 w_23) 0.001))
(assert (>= (- w_19 w_23) (- 0.001)))
(assert (<= (- w_19 w_26) 0.001))
(assert (>= (- w_19 w_26) (- 0.001)))
(assert (<= (- w_20 w_21) 0.001))
(assert (>= (- w_20 w_21) (- 0.001)))
(assert (<= (- w_20 w_22) 0.001))
(assert (>= (- w_20 w_22) (- 0.001)))
(assert (<= (- w_20 w_23) 0.001))
(assert (>= (- w_20 w_23) (- 0.001)))
(assert (<= (- w_20 w_26) 0.001))
(assert (>= (- w_20 w_26) (- 0.001)))
(assert (<= (- w_21 w_22) 0.001))
(assert (>= (- w_21 w_22) (- 0.001)))
(assert (<= (- w_21 w_23) 0.001))
(assert (>= (- w_21 w_23) (- 0.001)))
(assert (<= (- w_21 w_26) 0.001))
(assert (>= (- w_21 w_26) (- 0.001)))
(assert (<= (- w_22 w_23) 0.001))
(assert (>= (- w_22 w_23) (- 0.001)))
(assert (<= (- w_22 w_26) 0.001))
(assert (>= (- w_22 w_26) (- 0.001)))
(assert (<= (- w_23 w_26) 0.001))
(assert (>= (- w_23 w_26) (- 0.001)))
(assert (<= (- w_24 w_25) 0.001))
(assert (>= (- w_24 w_25) (- 0.001)))
(assert (<= (- w_32 w_33) 0.001))
(assert (>= (- w_32 w_33) (- 0.001)))
(assert (<= (- w_32 w_34) 0.001))
(assert (>= (- w_32 w_34) (- 0.001)))
(assert (<= (- w_32 w_35) 0.001))
(assert (>= (- w_32 w_35) (- 0.001)))
(assert (<= (- w_32 w_36) 0.001))
(assert (>= (- w_32 w_36) (- 0.001)))
(assert (<= (- w_32 w_37) 0.001))
(assert (>= (- w_32 w_37) (- 0.001)))
(assert (<= (- w_32 w_38) 0.001))
(assert (>= (- w_32 w_38) (- 0.001)))
(assert (<= (- w_32 w_39) 0.001))
(assert (>= (- w_32 w_39) (- 0.001)))
(assert (<= (- w_32 w_40) 0.001))
(assert (>= (- w_32 w_40) (- 0.001)))
(assert (<= (- w_32 w_41) 0.001))
(assert (>= (- w_32 w_41) (- 0.001)))
(assert (<= (- w_32 w_42) 0.001))
(assert (>= (- w_32 w_42) (- 0.001)))
(assert (<= (- w_32 w_43) 0.001))
(assert (>= (- w_32 w_43) (- 0.001)))
(assert (<= (- w_32 w_44) 0.001))
(assert (>= (- w_32 w_44) (- 0.001)))
(assert (<= (- w_33 w_34) 0.001))
(assert (>= (- w_33 w_34) (- 0.001)))
(assert (<= (- w_33 w_35) 0.001))
(assert (>= (- w_33 w_35) (- 0.001)))
(assert (<= (- w_33 w_36) 0.001))
(assert (>= (- w_33 w_36) (- 0.001)))
(assert (<= (- w_33 w_37) 0.001))
(assert (>= (- w_33 w_37) (- 0.001)))
(assert (<= (- w_33 w_38) 0.001))
(assert (>= (- w_33 w_38) (- 0.001)))
(assert (<= (- w_33 w_39) 0.001))
(assert (>= (- w_33 w_39) (- 0.001)))
(assert (<= (- w_33 w_40) 0.001))
(assert (>= (- w_33 w_40) (- 0.001)))
(assert (<= (- w_33 w_41) 0.001))
(assert (>= (- w_33 w_41) (- 0.001)))
(assert (<= (- w_33 w_42) 0.001))
(assert (>= (- w_33 w_42) (- 0.001)))
(assert (<= (- w_33 w_43) 0.001))
(assert (>= (- w_33 w_43) (- 0.001)))
(assert (<= (- w_33 w_44) 0.001))
(assert (>= (- w_33 w_44) (- 0.001)))
(assert (<= (- w_34 w_35) 0.001))
(assert (>= (- w_34 w_35) (- 0.001)))
(assert (<= (- w_34 w_36) 0.001))
(assert (>= (- w_34 w_36) (- 0.001)))
(assert (<= (- w_34 w_37) 0.001))
(assert (>= (- w_34 w_37) (- 0.001)))
(assert (<= (- w_34 w_38) 0.001))
(assert (>= (- w_34 w_38) (- 0.001)))
(assert (<= (- w_34 w_39) 0.001))
(assert (>= (- w_34 w_39) (- 0.001)))
(assert (<= (- w_34 w_40) 0.001))
(assert (>= (- w_34 w_40) (- 0.001)))
(assert (<= (- w_34 w_41) 0.001))
(assert (>= (- w_34 w_41) (- 0.001)))
(assert (<= (- w_34 w_42) 0.001))
(assert (>= (- w_34 w_42) (- 0.001)))
(assert (<= (- w_34 w_43) 0.001))
(assert (>= (- w_34 w_43) (- 0.001)))
(assert (<= (- w_34 w_44) 0.001))
(assert (>= (- w_34 w_44) (- 0.001)))
(assert (<= (- w_35 w_36) 0.001))
(assert (>= (- w_35 w_36) (- 0.001)))
(assert (<= (- w_35 w_37) 0.001))
(assert (>= (- w_35 w_37) (- 0.001)))
(assert (<= (- w_35 w_38) 0.001))
(assert (>= (- w_35 w_38) (- 0.001)))
(assert (<= (- w_35 w_39) 0.001))
(assert (>= (- w_35 w_39) (- 0.001)))
(assert (<= (- w_35 w_40) 0.001))
(assert (>= (- w_35 w_40) (- 0.001)))
(assert (<= (- w_35 w_41) 0.001))
(assert (>= (- w_35 w_41) (- 0.001)))
(assert (<= (- w_35 w_42) 0.001))
(assert (>= (- w_35 w_42) (- 0.001)))
(assert (<= (- w_35 w_43) 0.001))
(assert (>= (- w_35 w_43) (- 0.001)))
(assert (<= (- w_35 w_44) 0.001))
(assert (>= (- w_35 w_44) (- 0.001)))
(assert (<= (- w_36 w_37) 0.001))
(assert (>= (- w_36 w_37) (- 0.001)))
(assert (<= (- w_36 w_38) 0.001))
(assert (>= (- w_36 w_38) (- 0.001)))
(assert (<= (- w_36 w_39) 0.001))
(assert (>= (- w_36 w_39) (- 0.001)))
(assert (<= (- w_36 w_40) 0.001))
(assert (>= (- w_36 w_40) (- 0.001)))
(assert (<= (- w_36 w_41) 0.001))
(assert (>= (- w_36 w_41) (- 0.001)))
(assert (<= (- w_36 w_42) 0.001))
(assert (>= (- w_36 w_42) (- 0.001)))
(assert (<= (- w_36 w_43) 0.001))
(assert (>= (- w_36 w_43) (- 0.001)))
(assert (<= (- w_36 w_44) 0.001))
(assert (>= (- w_36 w_44) (- 0.001)))
(assert (<= (- w_37 w_38) 0.001))
(assert (>= (- w_37 w_38) (- 0.001)))
(assert (<= (- w_37 w_39) 0.001))
(assert (>= (- w_37 w_39) (- 0.001)))
(assert (<= (- w_37 w_40) 0.001))
(assert (>= (- w_37 w_40) (- 0.001)))
(assert (<= (- w_37 w_41) 0.001))
(assert (>= (- w_37 w_41) (- 0.001)))
(assert (<= (- w_37 w_42) 0.001))
(assert (>= (- w_37 w_42) (- 0.001)))
(assert (<= (- w_37 w_43) 0.001))
(assert (>= (- w_37 w_43) (- 0.001)))
(assert (<= (- w_37 w_44) 0.001))
(assert (>= (- w_37 w_44) (- 0.001)))
(assert (<= (- w_38 w_39) 0.001))
(assert (>= (- w_38 w_39) (- 0.001)))
(assert (<= (- w_38 w_40) 0.001))
(assert (>= (- w_38 w_40) (- 0.001)))
(assert (<= (- w_38 w_41) 0.001))
(assert (>= (- w_38 w_41) (- 0.001)))
(assert (<= (- w_38 w_42) 0.001))
(assert (>= (- w_38 w_42) (- 0.001)))
(assert (<= (- w_38 w_43) 0.001))
(assert (>= (- w_38 w_43) (- 0.001)))
(assert (<= (- w_38 w_44) 0.001))
(assert (>= (- w_38 w_44) (- 0.001)))
(assert (<= (- w_39 w_40) 0.001))
(assert (>= (- w_39 w_40) (- 0.001)))
(assert (<= (- w_39 w_41) 0.001))
(assert (>= (- w_39 w_41) (- 0.001)))
(assert (<= (- w_39 w_42) 0.001))
(assert (>= (- w_39 w_42) (- 0.001)))
(assert (<= (- w_39 w_43) 0.001))
(assert (>= (- w_39 w_43) (- 0.001)))
(assert (<= (- w_39 w_44) 0.001))
(assert (>= (- w_39 w_44) (- 0.001)))
(assert (<= (- w_40 w_41) 0.001))
(assert (>= (- w_40 w_41) (- 0.001)))
(assert (<= (- w_40 w_42) 0.001))
(assert (>= (- w_40 w_42) (- 0.001)))
(assert (<= (- w_40 w_43) 0.001))
(assert (>= (- w_40 w_43) (- 0.001)))
(assert (<= (- w_40 w_44) 0.001))
(assert (>= (- w_40 w_44) (- 0.001)))
(assert (<= (- w_41 w_42) 0.001))
(assert (>= (- w_41 w_42) (- 0.001)))
(assert (<= (- w_41 w_43) 0.001))
(assert (>= (- w_41 w_43) (- 0.001)))
(assert (<= (- w_41 w_44) 0.001))
(assert (>= (- w_41 w_44) (- 0.001)))
(assert (<= (- w_42 w_43) 0.001))
(assert (>= (- w_42 w_43) (- 0.001)))
(assert (<= (- w_42 w_44) 0.001))
(assert (>= (- w_42 w_44) (- 0.001)))
(assert (<= (- w_43 w_44) 0.001))
(assert (>= (- w_43 w_44) (- 0.001)))
(assert (<= (- w_45 w_46) 0.001))
(assert (>= (- w_45 w_46) (- 0.001)))
(assert (<= (- w_45 w_47) 0.001))
(assert (>= (- w_45 w_47) (- 0.001)))
(assert (<= (- w_45 w_48) 0.001))
(assert (>= (- w_45 w_48) (- 0.001)))
(assert (<= (- w_45 w_49) 0.001))
(assert (>= (- w_45 w_49) (- 0.001)))
(assert (<= (- w_45 w_50) 0.001))
(assert (>= (- w_45 w_50) (- 0.001)))
(assert (<= (- w_45 w_51) 0.001))
(assert (>= (- w_45 w_51) (- 0.001)))
(assert (<= (- w_45 w_52) 0.001))
(assert (>= (- w_45 w_52) (- 0.001)))
(assert (<= (- w_46 w_47) 0.001))
(assert (>= (- w_46 w_47) (- 0.001)))
(assert (<= (- w_46 w_48) 0.001))
(assert (>= (- w_46 w_48) (- 0.001)))
(assert (<= (- w_46 w_49) 0.001))
(assert (>= (- w_46 w_49) (- 0.001)))
(assert (<= (- w_46 w_50) 0.001))
(assert (>= (- w_46 w_50) (- 0.001)))
(assert (<= (- w_46 w_51) 0.001))
(assert (>= (- w_46 w_51) (- 0.001)))
(assert (<= (- w_46 w_52) 0.001))
(assert (>= (- w_46 w_52) (- 0.001)))
(assert (<= (- w_47 w_48) 0.001))
(assert (>= (- w_47 w_48) (- 0.001)))
(assert (<= (- w_47 w_49) 0.001))
(assert (>= (- w_47 w_49) (- 0.001)))
(assert (<= (- w_47 w_50) 0.001))
(assert (>= (- w_47 w_50) (- 0.001)))
(assert (<= (- w_47 w_51) 0.001))
(assert (>= (- w_47 w_51) (- 0.001)))
(assert (<= (- w_47 w_52) 0.001))
(assert (>= (- w_47 w_52) (- 0.001)))
(assert (<= (- w_48 w_49) 0.001))
(assert (>= (- w_48 w_49) (- 0.001)))
(assert (<= (- w_48 w_50) 0.001))
(assert (>= (- w_48 w_50) (- 0.001)))
(assert (<= (- w_48 w_51) 0.001))
(assert (>= (- w_48 w_51) (- 0.001)))
(assert (<= (- w_48 w_52) 0.001))
(assert (>= (- w_48 w_52) (- 0.001)))
(assert (<= (- w_49 w_50) 0.001))
(assert (>= (- w_49 w_50) (- 0.001)))
(assert (<= (- w_49 w_51) 0.001))
(assert (>= (- w_49 w_51) (- 0.001)))
(assert (<= (- w_49 w_52) 0.001))
(assert (>= (- w_49 w_52) (- 0.001)))
(assert (<= (- w_50 w_51) 0.001))
(assert (>= (- w_50 w_51) (- 0.001)))
(assert (<= (- w_50 w_52) 0.001))
(assert (>= (- w_50 w_52) (- 0.001)))
(assert (<= (- w_51 w_52) 0.001))
(assert (>= (- w_51 w_52) (- 0.001)))
(assert (<= (- w_54 w_55) 0.001))
(assert (>= (- w_54 w_55) (- 0.001)))
(assert (<= (- w_54 w_57) 0.001))
(assert (>= (- w_54 w_57) (- 0.001)))
(assert (<= (- w_54 w_58) 0.001))
(assert (>= (- w_54 w_58) (- 0.001)))
(assert (<= (- w_54 w_59) 0.001))
(assert (>= (- w_54 w_59) (- 0.001)))
(assert (<= (- w_54 w_60) 0.001))
(assert (>= (- w_54 w_60) (- 0.001)))
(assert (<= (- w_54 w_61) 0.001))
(assert (>= (- w_54 w_61) (- 0.001)))
(assert (<= (- w_54 w_62) 0.001))
(assert (>= (- w_54 w_62) (- 0.001)))
(assert (<= (- w_54 w_63) 0.001))
(assert (>= (- w_54 w_63) (- 0.001)))
(assert (<= (- w_54 w_64) 0.001))
(assert (>= (- w_54 w_64) (- 0.001)))
(assert (<= (- w_54 w_65) 0.001))
(assert (>= (- w_54 w_65) (- 0.001)))
(assert (<= (- w_54 w_66) 0.001))
(assert (>= (- w_54 w_66) (- 0.001)))
(assert (<= (- w_55 w_57) 0.001))
(assert (>= (- w_55 w_57) (- 0.001)))
(assert (<= (- w_55 w_58) 0.001))
(assert (>= (- w_55 w_58) (- 0.001)))
(assert (<= (- w_55 w_59) 0.001))
(assert (>= (- w_55 w_59) (- 0.001)))
(assert (<= (- w_55 w_60) 0.001))
(assert (>= (- w_55 w_60) (- 0.001)))
(assert (<= (- w_55 w_61) 0.001))
(assert (>= (- w_55 w_61) (- 0.001)))
(assert (<= (- w_55 w_62) 0.001))
(assert (>= (- w_55 w_62) (- 0.001)))
(assert (<= (- w_55 w_63) 0.001))
(assert (>= (- w_55 w_63) (- 0.001)))
(assert (<= (- w_55 w_64) 0.001))
(assert (>= (- w_55 w_64) (- 0.001)))
(assert (<= (- w_55 w_65) 0.001))
(assert (>= (- w_55 w_65) (- 0.001)))
(assert (<= (- w_55 w_66) 0.001))
(assert (>= (- w_55 w_66) (- 0.001)))
(assert (<= (- w_57 w_58) 0.001))
(assert (>= (- w_57 w_58) (- 0.001)))
(assert (<= (- w_57 w_59) 0.001))
(assert (>= (- w_57 w_59) (- 0.001)))
(assert (<= (- w_57 w_60) 0.001))
(assert (>= (- w_57 w_60) (- 0.001)))
(assert (<= (- w_57 w_61) 0.001))
(assert (>= (- w_57 w_61) (- 0.001)))
(assert (<= (- w_57 w_62) 0.001))
(assert (>= (- w_57 w_62) (- 0.001)))
(assert (<= (- w_57 w_63) 0.001))
(assert (>= (- w_57 w_63) (- 0.001)))
(assert (<= (- w_57 w_64) 0.001))
(assert (>= (- w_57 w_64) (- 0.001)))
(assert (<= (- w_57 w_65) 0.001))
(assert (>= (- w_57 w_65) (- 0.001)))
(assert (<= (- w_57 w_66) 0.001))
(assert (>= (- w_57 w_66) (- 0.001)))
(assert (<= (- w_58 w_59) 0.001))
(assert (>= (- w_58 w_59) (- 0.001)))
(assert (<= (- w_58 w_60) 0.001))
(assert (>= (- w_58 w_60) (- 0.001)))
(assert (<= (- w_58 w_61) 0.001))
(assert (>= (- w_58 w_61) (- 0.001)))
(assert (<= (- w_58 w_62) 0.001))
(assert (>= (- w_58 w_62) (- 0.001)))
(assert (<= (- w_58 w_63) 0.001))
(assert (>= (- w_58 w_63) (- 0.001)))
(assert (<= (- w_58 w_64) 0.001))
(assert (>= (- w_58 w_64) (- 0.001)))
(assert (<= (- w_58 w_65) 0.001))
(assert (>= (- w_58 w_65) (- 0.001)))
(assert (<= (- w_58 w_66) 0.001))
(assert (>= (- w_58 w_66) (- 0.001)))
(assert (<= (- w_59 w_60) 0.001))
(assert (>= (- w_59 w_60) (- 0.001)))
(assert (<= (- w_59 w_61) 0.001))
(assert (>= (- w_59 w_61) (- 0.001)))
(assert (<= (- w_59 w_62) 0.001))
(assert (>= (- w_59 w_62) (- 0.001)))
(assert (<= (- w_59 w_63) 0.001))
(assert (>= (- w_59 w_63) (- 0.001)))
(assert (<= (- w_59 w_64) 0.001))
(assert (>= (- w_59 w_64) (- 0.001)))
(assert (<= (- w_59 w_65) 0.001))
(assert (>= (- w_59 w_65) (- 0.001)))
(assert (<= (- w_59 w_66) 0.001))
(assert (>= (- w_59 w_66) (- 0.001)))
(assert (<= (- w_60 w_61) 0.001))
(assert (>= (- w_60 w_61) (- 0.001)))
(assert (<= (- w_60 w_62) 0.001))
(assert (>= (- w_60 w_62) (- 0.001)))
(assert (<= (- w_60 w_63) 0.001))
(assert (>= (- w_60 w_63) (- 0.001)))
(assert (<= (- w_60 w_64) 0.001))
(assert (>= (- w_60 w_64) (- 0.001)))
(assert (<= (- w_60 w_65) 0.001))
(assert (>= (- w_60 w_65) (- 0.001)))
(assert (<= (- w_60 w_66) 0.001))
(assert (>= (- w_60 w_66) (- 0.001)))
(assert (<= (- w_61 w_62) 0.001))
(assert (>= (- w_61 w_62) (- 0.001)))
(assert (<= (- w_61 w_63) 0.001))
(assert (>= (- w_61 w_63) (- 0.001)))
(assert (<= (- w_61 w_64) 0.001))
(assert (>= (- w_61 w_64) (- 0.001)))
(assert (<= (- w_61 w_65) 0.001))
(assert (>= (- w_61 w_65) (- 0.001)))
(assert (<= (- w_61 w_66) 0.001))
(assert (>= (- w_61 w_66) (- 0.001)))
(assert (<= (- w_62 w_63) 0.001))
(assert (>= (- w_62 w_63) (- 0.001)))
(assert (<= (- w_62 w_64) 0.001))
(assert (>= (- w_62 w_64) (- 0.001)))
(assert (<= (- w_62 w_65) 0.001))
(assert (>= (- w_62 w_65) (- 0.001)))
(assert (<= (- w_62 w_66) 0.001))
(assert (>= (- w_62 w_66) (- 0.001)))
(assert (<= (- w_63 w_64) 0.001))
(assert (>= (- w_63 w_64) (- 0.001)))
(assert (<= (- w_63 w_65) 0.001))
(assert (>= (- w_63 w_65) (- 0.001)))
(assert (<= (- w_63 w_66) 0.001))
(assert (>= (- w_63 w_66) (- 0.001)))
(assert (<= (- w_64 w_65) 0.001))
(assert (>= (- w_64 w_65) (- 0.001)))
(assert (<= (- w_64 w_66) 0.001))
(assert (>= (- w_64 w_66) (- 0.001)))
(assert (<= (- w_65 w_66) 0.001))
(assert (>= (- w_65 w_66) (- 0.001)))

; --- dummy: zero-contribution sources have zero weight ---
(assert (<= w_0 0.001))
(assert (>= w_0 (- 0.001)))
(assert (<= w_1 0.001))
(assert (>= w_1 (- 0.001)))
(assert (<= w_2 0.001))
(assert (>= w_2 (- 0.001)))
(assert (<= w_3 0.001))
(assert (>= w_3 (- 0.001)))
(assert (<= w_4 0.001))
(assert (>= w_4 (- 0.001)))
(assert (<= w_5 0.001))
(assert (>= w_5 (- 0.001)))
(assert (<= w_6 0.001))
(assert (>= w_6 (- 0.001)))
(assert (<= w_7 0.001))
(assert (>= w_7 (- 0.001)))
(assert (<= w_8 0.001))
(assert (>= w_8 (- 0.001)))
(assert (<= w_9 0.001))
(assert (>= w_9 (- 0.001)))
(assert (<= w_27 0.001))
(assert (>= w_27 (- 0.001)))
(assert (<= w_29 0.001))
(assert (>= w_29 (- 0.001)))
(assert (<= w_45 0.001))
(assert (>= w_45 (- 0.001)))
(assert (<= w_46 0.001))
(assert (>= w_46 (- 0.001)))
(assert (<= w_47 0.001))
(assert (>= w_47 (- 0.001)))
(assert (<= w_48 0.001))
(assert (>= w_48 (- 0.001)))
(assert (<= w_49 0.001))
(assert (>= w_49 (- 0.001)))
(assert (<= w_50 0.001))
(assert (>= w_50 (- 0.001)))
(assert (<= w_51 0.001))
(assert (>= w_51 (- 0.001)))
(assert (<= w_52 0.001))
(assert (>= w_52 (- 0.001)))
(assert (<= w_54 0.001))
(assert (>= w_54 (- 0.001)))
(assert (<= w_55 0.001))
(assert (>= w_55 (- 0.001)))
(assert (<= w_56 0.001))
(assert (>= w_56 (- 0.001)))
(assert (<= w_57 0.001))
(assert (>= w_57 (- 0.001)))
(assert (<= w_58 0.001))
(assert (>= w_58 (- 0.001)))
(assert (<= w_59 0.001))
(assert (>= w_59 (- 0.001)))
(assert (<= w_60 0.001))
(assert (>= w_60 (- 0.001)))
(assert (<= w_61 0.001))
(assert (>= w_61 (- 0.001)))
(assert (<= w_62 0.001))
(assert (>= w_62 (- 0.001)))
(assert (<= w_63 0.001))
(assert (>= w_63 (- 0.001)))
(assert (<= w_64 0.001))
(assert (>= w_64 (- 0.001)))
(assert (<= w_65 0.001))
(assert (>= w_65 (- 0.001)))
(assert (<= w_66 0.001))
(assert (>= w_66 (- 0.001)))

(check-sat)
(get-model)
